(set-option :auto-config false)
(get-option :auto-config)
(set-logic QF_UFLIA)
(declare-fun v2 () Int)
(declare-fun v1 () Int)
(push 1)
(assert (= v2 v1))
(push 1)
(assert (not (= v2 v1)))
(check-sat)
(pop 1)
(pop 1)
(assert (not (= v2 v1)))
(check-sat)

(reset)

(set-option :auto-config true)
(get-option :auto-config)
(set-logic QF_UFLIA)
(declare-fun v2 () Int)
(declare-fun v1 () Int)
(push 1)
(assert (= v2 v1))
(push 1)
(assert (not (= v2 v1)))
(check-sat)
(pop 1)
(pop 1)
(assert (not (= v2 v1)))
(check-sat)
